peakDumbCharging = 11100; 
Machine = anon_enum(16); 
machineSpeed = [3700,3700,3700,3700,3700,3700,3700,3700,3700,3700,3700,3700,3700,3700,3700,3700]; 
machineLoad = [3700,3700,3700,3700,3700,3700,3700,3700,3700,3700,3700,3700,3700,3700,3700,3700]; 
Car = anon_enum(11); 
demandCar = [14120,6040,4280,15720,39680,4680,8520,2400,9800,2520,1560]; 
arrivalCar = [77,75,69,65,63,60,57,54,49,46,43]; 
departureCar = [82,79,72,71,81,63,61,55,54,50,45]; 
